NAME : instances/clustered-mixed-tsp/instance-68.tsp
COMMENT : No Comment
TYPE : TSP
DIMENSION: 42
EDGE_WEIGHT_TYPE : EUC_2D
NODE_COORD_SECTION
1 451 874 
2 313 935 
3 521 842 
4 726 516 
5 576 996 
6 320 937 
7 691 520 
8 545 899 
9 562 1059 
10 339 912 
11 621 964 
12 365 933 
13 922 681 
14 726 517 
15 482 864 
16 728 462 
17 797 65 
18 871 80 
19 196 182 
20 480 895 
21 544 937 
22 476 863 
23 321 899 
24 372 886 
25 708 530 
26 551 635 
27 228 196 
28 642 507 
29 873 102 
30 455 1026 
31 285 859 
32 526 863 
33 323 906 
34 320 920 
35 542 855 
36 378 924 
37 626 465 
38 925 707 
39 240 142 
40 600 992 
41 455 840 
42 202 137 
EOF
